(set-logic QF_SLIA)
(declare-fun var0 () String)
(assert (not (str.in_re var0 (re.++ ((_ re.loop 13 85) (re.++ (re.union (str.to_re "VES") (re.union (str.to_re "Hs") (re.union (str.to_re "X") (str.to_re "DQn")))) (re.++ (re.union (str.to_re "m") (re.union (str.to_re "jdJ") (re.union (str.to_re "~]") (str.to_re "/Y")))) (re.++ (re.union (str.to_re "fdE") (re.union (str.to_re "l") (re.union (str.to_re "he") (str.to_re "Wu")))) (re.union (str.to_re "y!s") (re.union (str.to_re "w") (re.union (str.to_re "\\Rl") (str.to_re "Ks")))))))) (re.++ ((_ re.loop 20 908) (re.++ (re.union (str.to_re "k'") (re.union (str.to_re "*3") (re.union (str.to_re "0") (str.to_re "!")))) (re.++ (re.union (str.to_re "+") (re.union (str.to_re "m") (re.union (str.to_re "Wx") (str.to_re "]")))) (re.++ (re.union (str.to_re "1y") (re.union (str.to_re ">J") (re.union (str.to_re "j]") (str.to_re ".")))) (re.union (str.to_re "/oE") (re.union (str.to_re "3") (re.union (str.to_re "a8") (str.to_re "x\u0022")))))))) (re.++ ((_ re.loop 5 598) (re.++ (re.union (str.to_re "g") (re.union (str.to_re "mE") (re.union (str.to_re "LG") (str.to_re "6")))) (re.++ (re.union (str.to_re "a") (re.union (str.to_re "YE") (re.union (str.to_re "U^") (str.to_re "*")))) (re.++ (re.union (str.to_re "x9Z") (re.union (str.to_re "wy") (re.union (str.to_re "#w9") (str.to_re "aW4")))) (re.union (str.to_re "gW") (re.union (str.to_re "T") (re.union (str.to_re "j") (str.to_re "j3X")))))))) ((_ re.loop 9 961) (re.++ (re.union (str.to_re "E})") (re.union (str.to_re "26%") (re.union (str.to_re "0-") (str.to_re "#3j")))) (re.++ (re.union (str.to_re "Tu@") (re.union (str.to_re "iA") (re.union (str.to_re "p_") (str.to_re "P(")))) (re.++ (re.union (str.to_re "T") (re.union (str.to_re "\u0022") (re.union (str.to_re "0u") (str.to_re "V1|")))) (re.union (str.to_re "Tk") (re.union (str.to_re "6|") (re.union (str.to_re "jTM") (str.to_re "\\"))))))))))))))
(assert (not (str.in_re var0 (re.++ ((_ re.loop 19 84) (re.++ (re.union (str.to_re "5") (re.union (str.to_re "(") (re.union (str.to_re "_)") (str.to_re "F,")))) (re.++ (re.union (str.to_re "rI") (re.union (str.to_re "l") (re.union (str.to_re "}<'") (str.to_re "O")))) (re.++ (re.union (str.to_re "'d%") (re.union (str.to_re "J") (re.union (str.to_re "cJQ") (str.to_re "$")))) (re.union (str.to_re "\u0022{") (re.union (str.to_re "b3") (re.union (str.to_re "b") (str.to_re ")6")))))))) (re.++ ((_ re.loop 4 415) (re.++ (re.union (str.to_re "s") (re.union (str.to_re "[e") (re.union (str.to_re "z") (str.to_re "P")))) (re.++ (re.union (str.to_re "QAc") (re.union (str.to_re "#>d") (re.union (str.to_re "Y") (str.to_re "$ju")))) (re.++ (re.union (str.to_re "*7") (re.union (str.to_re "g+^") (re.union (str.to_re "u") (str.to_re "P")))) (re.union (str.to_re ";") (re.union (str.to_re "{=b") (re.union (str.to_re "Sl") (str.to_re "+")))))))) (re.++ ((_ re.loop 0 601) (re.++ (re.union (str.to_re "F") (re.union (str.to_re "#P") (re.union (str.to_re "B[5") (str.to_re "Lv")))) (re.++ (re.union (str.to_re "|") (re.union (str.to_re "@^z") (re.union (str.to_re ")J\\") (str.to_re "8")))) (re.++ (re.union (str.to_re "3)G") (re.union (str.to_re "z") (re.union (str.to_re "f/") (str.to_re "ecn")))) (re.union (str.to_re "zb") (re.union (str.to_re "?") (re.union (str.to_re "WZ") (str.to_re "GOy")))))))) ((_ re.loop 1 719) (re.++ (re.union (str.to_re "[L") (re.union (str.to_re "C1q") (re.union (str.to_re "H>") (str.to_re "}2")))) (re.++ (re.union (str.to_re "_") (re.union (str.to_re "{") (re.union (str.to_re "Eh") (str.to_re "e")))) (re.++ (re.union (str.to_re ".k+") (re.union (str.to_re "l4") (re.union (str.to_re "A") (str.to_re "=")))) (re.union (str.to_re "w") (re.union (str.to_re ")+(") (re.union (str.to_re "+Z") (str.to_re "E"))))))))))))))
(assert (not (str.in_re var0 (re.++ (re.* re.allchar) (re.++ (re.union (str.to_re "<") (re.union (str.to_re ">") (re.union (str.to_re "'") (re.union (str.to_re "\u0022") (str.to_re "&"))))) (re.* re.allchar))))))
(assert (<= 50 (str.len var0)))
(check-sat)
(get-model)
